min: c;

c = 3.45220584596398 * u5_t4_h2 + 3.45220584596398 * u5_t7_h2 + 3.73642122170637 * u5_t4_h3 + 3.73642122170637 * u5_t7_h3 + 3.19139627476077 * u5_t1_h4 + 3.19139627476077 * u5_t3_h4 + 3.19139627476077 * u5_t4_h4 + 3.19139627476077 * u5_t7_h4 + 3.48676064790369 * u5_t1_h5 + 3.48676064790369 * u5_t3_h5 + 3.48676064790369 * u5_t4_h5 + 3.48676064790369 * u5_t7_h5 + 4.22940993859533 * u5_t1_h6 + 4.22940993859533 * u5_t3_h6 + 4.22940993859533 * u5_t4_h6 + 4.22940993859533 * u5_t6_h6 + 4.22940993859533 * u5_t7_h6 + 3.6382811870942 * u5_t1_h7 + 3.6382811870942 * u5_t3_h7 + 3.6382811870942 * u5_t4_h7 + 3.6382811870942 * u5_t6_h7 + 5.10212484141993 * u5_t1_h8 + 5.10212484141993 * u5_t3_h8 + 5.10212484141993 * u5_t4_h8 + 5.10212484141993 * u5_t6_h8 + 4.93929378924416 * u5_t1_h9 + 4.93929378924416 * u5_t3_h9 + 4.93929378924416 * u5_t4_h9 + 4.93929378924416 * u5_t6_h9 + 5.61146559234413 * u5_t1_h10 + 5.61146559234413 * u5_t3_h10 + 5.61146559234413 * u5_t4_h10 + 5.61146559234413 * u5_t6_h10 + 4.29969468030008 * u5_t1_h11 + 4.29969468030008 * u5_t3_h11 + 4.29969468030008 * u5_t4_h11 + 4.29969468030008 * u5_t6_h11 + 6.11540886553968 * u5_t1_h12 + 6.11540886553968 * u5_t3_h12 + 6.11540886553968 * u5_t4_h12 + 6.11540886553968 * u5_t6_h12 + 4.34492279945755 * u5_t1_h13 + 4.34492279945755 * u5_t3_h13 + 4.34492279945755 * u5_t4_h13 + 4.34492279945755 * u5_t6_h13 + 4.34492279945755 * u5_t8_h13 + 5.68622484327464 * u5_t1_h14 + 5.68622484327464 * u5_t3_h14 + 5.68622484327464 * u5_t4_h14 + 5.68622484327464 * u5_t6_h14 + 5.68622484327464 * u5_t8_h14 + 6.02586954626492 * u5_t1_h15 + 6.02586954626492 * u5_t3_h15 + 6.02586954626492 * u5_t4_h15 + 6.02586954626492 * u5_t6_h15 + 6.02586954626492 * u5_t8_h15 + 6.02586954626492 * u5_t9_h15 + 6.18998784293662 * u5_t1_h16 + 6.18998784293662 * u5_t3_h16 + 6.18998784293662 * u5_t4_h16 + 6.18998784293662 * u5_t5_h16 + 6.18998784293662 * u5_t6_h16 + 6.18998784293662 * u5_t8_h16 + 6.18998784293662 * u5_t9_h16 + 6.13258402071867 * u5_t1_h17 + 6.13258402071867 * u5_t5_h17 + 6.13258402071867 * u5_t6_h17 + 6.13258402071867 * u5_t8_h17 + 6.13258402071867 * u5_t9_h17 + 6.13258402071867 * u5_t10_h17 + 6.04134644913819 * u5_t1_h18 + 6.04134644913819 * u5_t2_h18 + 6.04134644913819 * u5_t5_h18 + 6.04134644913819 * u5_t6_h18 + 6.04134644913819 * u5_t9_h18 + 6.04134644913819 * u5_t10_h18 + 5.39238431764714 * u5_t1_h19 + 5.39238431764714 * u5_t2_h19 + 5.39238431764714 * u5_t5_h19 + 5.39238431764714 * u5_t9_h19 + 5.39238431764714 * u5_t10_h19 + 5.3227778139129 * u5_t1_h20 + 5.3227778139129 * u5_t2_h20 + 5.3227778139129 * u5_t5_h20 + 5.3227778139129 * u5_t9_h20 + 5.3227778139129 * u5_t10_h20 + 4.89149455646532 * u5_t2_h21 + 4.89149455646532 * u5_t5_h21 + 4.89149455646532 * u5_t9_h21 + 4.89149455646532 * u5_t10_h21 + 5.31183605456781 * u5_t2_h22 + 5.31183605456781 * u5_t5_h22 + 5.31183605456781 * u5_t9_h22 + 5.31183605456781 * u5_t10_h22 + 5.6336736725157 * u5_t5_h23 + 5.6336736725157 * u5_t9_h23 + 5.6336736725157 * u5_t10_h23;
0 <= u5_t1_h4 <= 1;
0 <= u5_t1_h5 <= 1;
0 <= u5_t1_h6 <= 1;
0 <= u5_t1_h7 <= 1;
0 <= u5_t1_h8 <= 1;
0 <= u5_t1_h9 <= 1;
0 <= u5_t1_h10 <= 1;
0 <= u5_t1_h11 <= 1;
0 <= u5_t1_h12 <= 1;
0 <= u5_t1_h13 <= 1;
0 <= u5_t1_h14 <= 1;
0 <= u5_t1_h15 <= 1;
0 <= u5_t1_h16 <= 1;
0 <= u5_t1_h17 <= 1;
0 <= u5_t1_h18 <= 1;
0 <= u5_t1_h19 <= 1;
0 <= u5_t1_h20 <= 1;
u5_t1_h4 + u5_t1_h5 + u5_t1_h6 + u5_t1_h7 + u5_t1_h8 + u5_t1_h9 + u5_t1_h10 + u5_t1_h11 + u5_t1_h12 + u5_t1_h13 + u5_t1_h14 + u5_t1_h15 + u5_t1_h16 + u5_t1_h17 + u5_t1_h18 + u5_t1_h19 + u5_t1_h20 = 1;
0 <= u5_t2_h18 <= 1;
0 <= u5_t2_h19 <= 1;
0 <= u5_t2_h20 <= 1;
0 <= u5_t2_h21 <= 1;
0 <= u5_t2_h22 <= 1;
u5_t2_h18 + u5_t2_h19 + u5_t2_h20 + u5_t2_h21 + u5_t2_h22 = 3;
0 <= u5_t3_h4 <= 1;
0 <= u5_t3_h5 <= 1;
0 <= u5_t3_h6 <= 1;
0 <= u5_t3_h7 <= 1;
0 <= u5_t3_h8 <= 1;
0 <= u5_t3_h9 <= 1;
0 <= u5_t3_h10 <= 1;
0 <= u5_t3_h11 <= 1;
0 <= u5_t3_h12 <= 1;
0 <= u5_t3_h13 <= 1;
0 <= u5_t3_h14 <= 1;
0 <= u5_t3_h15 <= 1;
0 <= u5_t3_h16 <= 1;
u5_t3_h4 + u5_t3_h5 + u5_t3_h6 + u5_t3_h7 + u5_t3_h8 + u5_t3_h9 + u5_t3_h10 + u5_t3_h11 + u5_t3_h12 + u5_t3_h13 + u5_t3_h14 + u5_t3_h15 + u5_t3_h16 = 1;
0 <= u5_t4_h2 <= 1;
0 <= u5_t4_h3 <= 1;
0 <= u5_t4_h4 <= 1;
0 <= u5_t4_h5 <= 1;
0 <= u5_t4_h6 <= 1;
0 <= u5_t4_h7 <= 1;
0 <= u5_t4_h8 <= 1;
0 <= u5_t4_h9 <= 1;
0 <= u5_t4_h10 <= 1;
0 <= u5_t4_h11 <= 1;
0 <= u5_t4_h12 <= 1;
0 <= u5_t4_h13 <= 1;
0 <= u5_t4_h14 <= 1;
0 <= u5_t4_h15 <= 1;
0 <= u5_t4_h16 <= 1;
u5_t4_h2 + u5_t4_h3 + u5_t4_h4 + u5_t4_h5 + u5_t4_h6 + u5_t4_h7 + u5_t4_h8 + u5_t4_h9 + u5_t4_h10 + u5_t4_h11 + u5_t4_h12 + u5_t4_h13 + u5_t4_h14 + u5_t4_h15 + u5_t4_h16 = 3;
0 <= u5_t5_h16 <= 1;
0 <= u5_t5_h17 <= 1;
0 <= u5_t5_h18 <= 1;
0 <= u5_t5_h19 <= 1;
0 <= u5_t5_h20 <= 1;
0 <= u5_t5_h21 <= 1;
0 <= u5_t5_h22 <= 1;
0 <= u5_t5_h23 <= 1;
u5_t5_h16 + u5_t5_h17 + u5_t5_h18 + u5_t5_h19 + u5_t5_h20 + u5_t5_h21 + u5_t5_h22 + u5_t5_h23 = 2;
0 <= u5_t6_h6 <= 1;
0 <= u5_t6_h7 <= 1;
0 <= u5_t6_h8 <= 1;
0 <= u5_t6_h9 <= 1;
0 <= u5_t6_h10 <= 1;
0 <= u5_t6_h11 <= 1;
0 <= u5_t6_h12 <= 1;
0 <= u5_t6_h13 <= 1;
0 <= u5_t6_h14 <= 1;
0 <= u5_t6_h15 <= 1;
0 <= u5_t6_h16 <= 1;
0 <= u5_t6_h17 <= 1;
0 <= u5_t6_h18 <= 1;
u5_t6_h6 + u5_t6_h7 + u5_t6_h8 + u5_t6_h9 + u5_t6_h10 + u5_t6_h11 + u5_t6_h12 + u5_t6_h13 + u5_t6_h14 + u5_t6_h15 + u5_t6_h16 + u5_t6_h17 + u5_t6_h18 = 2;
0 <= u5_t7_h2 <= 1;
0 <= u5_t7_h3 <= 1;
0 <= u5_t7_h4 <= 1;
0 <= u5_t7_h5 <= 1;
0 <= u5_t7_h6 <= 1;
u5_t7_h2 + u5_t7_h3 + u5_t7_h4 + u5_t7_h5 + u5_t7_h6 = 1;
0 <= u5_t8_h13 <= 1;
0 <= u5_t8_h14 <= 1;
0 <= u5_t8_h15 <= 1;
0 <= u5_t8_h16 <= 1;
0 <= u5_t8_h17 <= 1;
u5_t8_h13 + u5_t8_h14 + u5_t8_h15 + u5_t8_h16 + u5_t8_h17 = 3;
0 <= u5_t9_h15 <= 1;
0 <= u5_t9_h16 <= 1;
0 <= u5_t9_h17 <= 1;
0 <= u5_t9_h18 <= 1;
0 <= u5_t9_h19 <= 1;
0 <= u5_t9_h20 <= 1;
0 <= u5_t9_h21 <= 1;
0 <= u5_t9_h22 <= 1;
0 <= u5_t9_h23 <= 1;
u5_t9_h15 + u5_t9_h16 + u5_t9_h17 + u5_t9_h18 + u5_t9_h19 + u5_t9_h20 + u5_t9_h21 + u5_t9_h22 + u5_t9_h23 = 1;
0 <= u5_t10_h17 <= 1;
0 <= u5_t10_h18 <= 1;
0 <= u5_t10_h19 <= 1;
0 <= u5_t10_h20 <= 1;
0 <= u5_t10_h21 <= 1;
0 <= u5_t10_h22 <= 1;
0 <= u5_t10_h23 <= 1;
u5_t10_h17 + u5_t10_h18 + u5_t10_h19 + u5_t10_h20 + u5_t10_h21 + u5_t10_h22 + u5_t10_h23 = 1;
